Route #1: 1 55 5 30 36 41 6 47 24 1
Route #2: 1 29 26 52 39 37 18 35 27 20 17 1
Route #3: 1 32 7 16 12 4 46 1
Route #4: 1 14 34 28 49 25 50 11 22 45 1
Route #5: 1 48 21 44 8 33 40 23 43 3 53 2 1
Route #6: 1 9 10 54 13 42 19 57 1
Route #7: 1 31 15 51 38 56 1
cost 1235.8288760336611